RT is False
Default write of storage_offers_DA.csv just to have a file (but constraint should be inactive)
Reading model...
...model read.
creating competitive generators file...
...competitive generators recorded.
Loading data...
.. day-ahead data with real-time VRE data read.
Compiling instance...
...instance created.
Creating Offer Mitigation (model will solve as dispatch if TRUE)...
NOTE: storage offers will not be mitigated
...storage offer mitigation file created
Converting model to MPEC...
...converted
NOTE: initial MIP solve with only storage competitive to get feasible solution
Solving...

Welcome to IBM(R) ILOG(R) CPLEX(R) Interactive Optimizer 12.9.0.0
  with Simplex, Mixed Integer & Barrier Optimizers
5725-A06 5725-A29 5724-Y48 5724-Y49 5724-Y54 5724-Y55 5655-Y21
Copyright IBM Corp. 1988, 2019.  All Rights Reserved.

Type 'help' for a list of available commands.
Type 'help' followed by a command name for more
information on commands.

CPLEX> Logfile 'cplex.log' closed.
Logfile 'C:\Users\llavin\Desktop\test826\logs\tmpipmkasyc.cplex.log' open.
CPLEX> New value for parallel optimization mode: -1
CPLEX> New value for emphasis for MIP optimization: 1
CPLEX> New value for mixed integer optimality gap tolerance: 0.01
CPLEX> New value for integrality tolerance: 1e-12
CPLEX> New value for deterministic time limit in ticks: 75000
CPLEX> Problem 'C:\Users\llavin\Desktop\test826\logs\tmpjjcf3hxl.pyomo.lp' read.
Read time = 0.23 sec. (13.92 ticks)
CPLEX> Problem name         : C:\Users\llavin\Desktop\test826\logs\tmpjjcf3hxl.pyomo.lp
Objective sense      : Maximize
Variables            :   53809  [Nneg: 1,  Box: 22004,  Free: 4464,
                                 Binary: 27340]
Objective nonzeros   :    8980
Linear constraints   :  123253  [Less: 41346,  Greater: 59096,  Equal: 22811]
  Nonzeros           :  293289
  RHS nonzeros       :   67491

Variables            : Min LB: -5000.000        Max UB: 1000000.       
Objective nonzeros   : Min   : 0.2583333        Max   : 788.2333       
Linear constraints   :
  Nonzeros           : Min   : 0.2583333        Max   : 1000000.       
  RHS nonzeros       : Min   : 0.2583333        Max   : 1000000.       
CPLEX> CPXPARAM_Parallel                                -1
CPXPARAM_Emphasis_MIP                            1
CPXPARAM_DetTimeLimit                            75000
CPXPARAM_MIP_Tolerances_MIPGap                   0.01
CPXPARAM_MIP_Tolerances_Integrality              9.9999999999999998e-13
Tried aggregator 4 times.
MIP Presolve eliminated 88664 rows and 18920 columns.
MIP Presolve added 3402 rows and 0 columns.
MIP Presolve modified 24906 coefficients.
Aggregator did 13021 substitutions.
Reduced MIP has 24970 rows, 21312 columns, and 71235 nonzeros.
Reduced MIP has 8418 binaries, 0 generals, 0 SOSs, and 0 indicators.
Presolve time = 0.31 sec. (193.73 ticks)
Probing fixed 384 vars, tightened 4018 bounds.
Probing time = 0.06 sec. (19.10 ticks)
Tried aggregator 2 times.
MIP Presolve eliminated 868 rows and 768 columns.
MIP Presolve modified 3040 coefficients.
Aggregator did 33 substitutions.
Reduced MIP has 24069 rows, 20511 columns, and 68632 nonzeros.
Reduced MIP has 8034 binaries, 0 generals, 0 SOSs, and 0 indicators.
Presolve time = 0.09 sec. (87.48 ticks)
Probing fixed 0 vars, tightened 350 bounds.
Probing time = 0.14 sec. (23.20 ticks)
Clique table members: 44978.
MIP emphasis: integer feasibility.
MIP search method: dynamic search.
Parallel mode: opportunistic, using up to 32 threads.
Root relaxation solution time = 0.36 sec. (584.93 ticks)

        Nodes                                         Cuts/
   Node  Left     Objective  IInf  Best Integer    Best Bound    ItCnt     Gap

      0     0     3212.6983   103                   3212.6983     4890         
*     0     0      integral     0     3212.6983     3212.6983     4890    0.00%
Elapsed time = 1.84 sec. (1478.04 ticks, tree = 0.01 MB, solutions = 1)

Root node processing (before b&c):
  Real time             =    1.86 sec. (1479.99 ticks)
Parallel b&c, 32 threads:
  Real time             =    0.00 sec. (0.00 ticks)
  Sync time (average)   =    0.00 sec.
  Wait time (average)   =    0.00 sec.
                          ------------
Total (root+branch&cut) =    1.86 sec. (1479.99 ticks)

Solution pool: 1 solution saved.

MIP - Integer optimal solution:  Objective =  3.2126983042e+03
Solution time =    1.88 sec.  Iterations = 4890  Nodes = 0
Deterministic time = 1480.14 ticks  (789.41 ticks/sec)

CPLEX> Incumbent solution written to file 'C:\Users\llavin\Desktop\test826\logs\tmp_gcu77bf.cplex.sol'.
CPLEX> NOTE: no warmstart specified for MIP iteration, default behavior is true
NOTE: resolving with all competitive generators using storage-only solution to warmstart
Solving...

Welcome to IBM(R) ILOG(R) CPLEX(R) Interactive Optimizer 12.9.0.0
  with Simplex, Mixed Integer & Barrier Optimizers
5725-A06 5725-A29 5724-Y48 5724-Y49 5724-Y54 5724-Y55 5655-Y21
Copyright IBM Corp. 1988, 2019.  All Rights Reserved.

Type 'help' for a list of available commands.
Type 'help' followed by a command name for more
information on commands.

CPLEX> Logfile 'cplex.log' closed.
Logfile 'C:\Users\llavin\Desktop\test826\logs\tmpxgnp606q.cplex.log' open.
CPLEX> New value for parallel optimization mode: -1
CPLEX> New value for emphasis for MIP optimization: 1
CPLEX> New value for mixed integer optimality gap tolerance: 0.01
CPLEX> New value for integrality tolerance: 1e-12
CPLEX> New value for deterministic time limit in ticks: 75000
CPLEX> Problem 'C:\Users\llavin\Desktop\test826\logs\tmpgj6nq430.pyomo.lp' read.
Read time = 0.23 sec. (13.94 ticks)
CPLEX> MIP start file 'C:\Users\llavin\Desktop\test826\logs\tmpnev38e40.cplex.mst' read.
CPLEX> Problem name         : C:\Users\llavin\Desktop\test826\logs\tmpgj6nq430.pyomo.lp
Objective sense      : Maximize
Variables            :   54529  [Nneg: 1,  Box: 22724,  Free: 4464,
                                 Binary: 27340]
Objective nonzeros   :    9676
Linear constraints   :  123253  [Less: 41346,  Greater: 59096,  Equal: 22811]
  Nonzeros           :  293289
  RHS nonzeros       :   67491

Variables            : Min LB: -5000.000        Max UB: 1000000.       
Objective nonzeros   : Min   : 0.2583333        Max   : 773.5500       
Linear constraints   :
  Nonzeros           : Min   : 0.2583333        Max   : 1000000.       
  RHS nonzeros       : Min   : 0.2583333        Max   : 1000000.       
CPLEX> CPXPARAM_Parallel                                -1
CPXPARAM_Emphasis_MIP                            1
CPXPARAM_DetTimeLimit                            75000
CPXPARAM_MIP_Tolerances_MIPGap                   0.01
CPXPARAM_MIP_Tolerances_Integrality              9.9999999999999998e-13
Warning:  No solution found from 1 MIP starts.
Retaining values of one MIP start for possible repair.
Tried aggregator 4 times.
MIP Presolve eliminated 88664 rows and 19640 columns.
MIP Presolve added 3402 rows and 0 columns.
MIP Presolve modified 24906 coefficients.
Aggregator did 13021 substitutions.
Reduced MIP has 24970 rows, 21312 columns, and 71235 nonzeros.
Reduced MIP has 8418 binaries, 0 generals, 0 SOSs, and 0 indicators.
Presolve time = 0.33 sec. (194.14 ticks)
Probing fixed 384 vars, tightened 4018 bounds.
Probing time = 0.06 sec. (19.10 ticks)
Tried aggregator 2 times.
MIP Presolve eliminated 868 rows and 768 columns.
MIP Presolve modified 3040 coefficients.
Aggregator did 33 substitutions.
Reduced MIP has 24069 rows, 20511 columns, and 68632 nonzeros.
Reduced MIP has 8034 binaries, 0 generals, 0 SOSs, and 0 indicators.
Presolve time = 0.09 sec. (87.48 ticks)
Probing fixed 0 vars, tightened 350 bounds.
Probing time = 0.14 sec. (23.20 ticks)
Clique table members: 44978.
MIP emphasis: integer feasibility.
MIP search method: dynamic search.
Parallel mode: opportunistic, using up to 32 threads.
Root relaxation solution time = 0.44 sec. (655.70 ticks)

        Nodes                                         Cuts/
   Node  Left     Objective  IInf  Best Integer    Best Bound    ItCnt     Gap

      0     0   137902.5013   310                 137902.5013     5753         
      0     0   133671.7314   272                   Cuts: 166     6040         
      0     0   131697.7208   220                   Cuts: 109     6200         
      0     0   131381.3539   232                    Cuts: 42     6243         
Repair heuristic found nothing.
      0     9   125842.3856   199                     Cuts: 7     6339         
Elapsed time = 4.39 sec. (1946.26 ticks, tree = 0.02 MB, solutions = 0)
    495   360    89340.7209   109                 127921.7254    13580         
    889   615    45816.7242    95                 127921.7254    23044         
   1517  1183     3168.6316    36                 127921.7254    39303         
   2189  1784     -902.4839    28                 127921.7254    47333         
   2859  1974   -58557.3739    48                 127921.7254    53423         
   3540  2372  -154781.7724    55                 126918.8130    69722         
   4175  2731     8019.4458    39                 126837.2080    83489         
   4747  2988    11007.7557    48                 126837.2080    93633         
   5377  3528    23566.0868    91                 126837.2080   115746         
*  5758+ 2399                         7819.2878   126837.2080              --- 
Elapsed time = 16.64 sec. (4241.83 ticks, tree = 21.55 MB, solutions = 1)
   8093  3178    22714.2624    90     7819.2878   126837.2080   199355     --- 
   8503  3957        cutoff           7819.2878    86078.7041   258212     --- 
  10116  1124    10669.3243   108     7819.2878    84358.4366   290402  978.85%
  11877  1766    41987.4689   105     7819.2878    84169.8488   310898  976.44%
  14881  3021        cutoff           7819.2878    84169.8488   375254  976.44%
  17834  3253     8831.7154    65     7819.2878    84169.8488   405408  976.44%
  20707  3369    54830.2614    95     7819.2878    81723.9282   486677  945.16%
  23581  3547        cutoff           7819.2878    81723.2107   521549  945.15%
  26359  3101    10312.4630    69     7819.2878    81723.2107   618575  945.15%
  29214  2595    11895.5085    97     7819.2878    81723.2107   678336  945.15%
Elapsed time = 66.56 sec. (15410.37 ticks, tree = 13.77 MB, solutions = 1)
  32207  1938        cutoff           7819.2878    81723.2107   734516  945.15%
  35002  1316        cutoff           7819.2878    81723.2107   803994  945.15%
  37750  1219    infeasible           7819.2878    81723.2107   868202  945.15%
  40575  1215    17958.5907    87     7819.2878    81723.2107   888028  945.15%
  43334  1090     9953.5240    81     7819.2878    81723.2107   934204  945.15%
  46087   191    infeasible           7819.2878    81723.2107  1145948  945.15%
  48970   190     7850.4630    11     7819.2878    61481.8696  1225258  686.28%
  52887   248     7858.4994    10     7819.2878    59525.0752  1225383  661.26%
  56903  1310     7885.3844    10     7819.2878    59525.0752  1231273  661.26%
  59851  3503    infeasible           8067.7122    59525.0752  1242270  637.82%
Elapsed time = 117.39 sec. (24949.86 ticks, tree = 26.65 MB, solutions = 5)
  60767  5288     7938.9247    10     8067.7122    59525.0752  1251039  637.82%
  61114  6267     8041.3132     7     8067.7122    21331.2183  1257073  164.40%

Clique cuts applied:  3
Cover cuts applied:  11
Implied bound cuts applied:  78
Flow cuts applied:  208
Mixed integer rounding cuts applied:  19
Zero-half cuts applied:  2
Gomory fractional cuts applied:  3

Root node processing (before b&c):
  Real time             =    2.70 sec. (1905.46 ticks)
Parallel b&c, 32 threads:
  Real time             =  115.97 sec. (25262.15 ticks)
  Sync time (average)   =    3.62 sec.
  Wait time (average)   =    0.25 sec.
                          ------------
Total (root+branch&cut) =  118.67 sec. (27167.61 ticks)

Solution pool: 5 solutions saved.

MIP - Integer optimal, tolerance (0.01/1e-06):  Objective =  8.0677121604e+03
Current MIP best bound =  8.1179393995e+03 (gap = 50.2272, 0.62%)
Solution time =  118.67 sec.  Iterations = 1273523  Nodes = 61135 (58)
Deterministic time = 27167.76 ticks  (228.93 ticks/sec)

CPLEX> Incumbent solution written to file 'C:\Users\llavin\Desktop\test826\logs\tmp6du42mg_.cplex.sol'.
CPLEX> Exporting results... 
